NAME : instances/clustered-mixed-tsp/instance-33.tsp
COMMENT : No Comment
TYPE : TSP
DIMENSION: 47
EDGE_WEIGHT_TYPE : EUC_2D
NODE_COORD_SECTION
1 1231 1004 
2 285 358 
3 1278 1999 
4 1299 1939 
5 1253 2053 
6 1379 1985 
7 229 402 
8 1995 867 
9 1606 874 
10 1270 2035 
11 1771 13 
12 1130 744 
13 1263 888 
14 98 508 
15 1311 2066 
16 1674 842 
17 1877 114 
18 1281 654 
19 1601 996 
20 1602 983 
21 176 502 
22 1348 1923 
23 1617 816 
24 1601 833 
25 1608 900 
26 1275 1914 
27 1243 1601 
28 1277 2044 
29 1304 2034 
30 96 372 
31 1702 934 
32 1724 1002 
33 1191 774 
34 1914 887 
35 1637 952 
36 1357 1990 
37 1297 1912 
38 1235 1913 
39 1374 2061 
40 1922 957 
41 1591 991 
42 1239 1533 
43 1289 649 
44 1281 1928 
45 1986 869 
46 1354 1686 
47 163 484 
EOF
